(declare-fun Constructed_Argument_t () String)
(declare-fun CreateAsClass () Bool)
(declare-fun Constructed_Argument () Real)
(declare-fun ExpandObjSwitcher () Real)
(declare-fun Constructed_Argument_2_t () String)
(declare-fun Constructed_Argument_3_t () String)
(declare-fun CreateAsClass_2 () Bool)
(declare-fun Constructed_Argument_2 () String)
(declare-fun Constructed_Argument_4_t () String)
(declare-fun Constructed_Argument_5_t () String)
(assert (= Constructed_Argument_t "number"))
(assert CreateAsClass)
(assert (not (= Constructed_Argument 0.0)))
(assert (= ExpandObjSwitcher 4.0))
(assert (= Constructed_Argument_2_t "string"))
(assert (not (= Constructed_Argument_3_t "string")))
(assert (not (= Constructed_Argument_3_t "number")))
(assert (not (= Constructed_Argument_3_t "boolean")))
(assert (not (= Constructed_Argument_3_t "object")))
(assert (not (= Constructed_Argument_3_t "array_number")))
(assert (not (= Constructed_Argument_3_t "array_string")))
(assert (not (= Constructed_Argument_3_t "array_bool")))
(assert (not (= Constructed_Argument_3_t "null")))
(assert (not CreateAsClass_2))
(assert (not (<= (to_real (str.len Constructed_Argument_2)) 0.0)))
(assert (not (= Constructed_Argument_4_t "string")))
(assert (not (= Constructed_Argument_4_t "number")))
(assert (not (= Constructed_Argument_4_t "boolean")))
(assert (not (= Constructed_Argument_4_t "object")))
(assert (not (= Constructed_Argument_4_t "array_number")))
(assert (not (= Constructed_Argument_4_t "array_string")))
(assert (not (= Constructed_Argument_4_t "array_bool")))
(assert (not (= Constructed_Argument_4_t "null")))
(assert (not (<= (to_real (str.len Constructed_Argument_2)) 1.0)))
(assert (not (= Constructed_Argument_5_t "string")))
(assert (not (= Constructed_Argument_5_t "number")))
(assert (not (= Constructed_Argument_5_t "boolean")))
(assert (not (= Constructed_Argument_5_t "object")))
(assert (not (= Constructed_Argument_5_t "array_number")))
(assert (not (= Constructed_Argument_5_t "array_string")))
(assert (= Constructed_Argument_5_t "array_bool"))
(check-sat)
